(set-logic ALL)
(declare-const self String)
(declare-const name String)
(assert (not (str.contains name "%")))
(assert (not (< (str.len name) 0)))
(assert (not (> (+ 0 (str.indexof name ":" 0)) 0)))
(assert (not (= (str.substr name 0 (- 2 0)) "//")))
(assert (not (str.contains name "#")))
(assert (str.contains name "?"))
(assert (not (< (str.len name) 0)))
(assert (= (+ 0 (str.indexof name "?" 0)) (- 1)))
(check-sat)
(get-value (self))
(get-value (name))
